NAME: tsp_451
COMMENT: Random TSP instance
TYPE: TSP
DIMENSION: 50
EDGE_WEIGHT_TYPE: EUC_2D
NODE_COORD_SECTION
1 540 644
2 212 701
3 404 163
4 436 897
5 38 811
6 441 378
7 588 454
8 453 832
9 716 79
10 1000 49
11 590 925
12 356 357
13 386 785
14 294 357
15 316 92
16 312 669
17 784 69
18 896 951
19 186 569
20 205 534
21 955 841
22 238 244
23 564 904
24 274 472
25 798 591
26 784 126
27 233 955
28 265 172
29 301 578
30 31 469
31 358 978
32 400 143
33 921 563
34 127 706
35 822 656
36 97 218
37 60 822
38 221 230
39 657 391
40 436 603
41 338 104
42 94 809
43 486 646
44 778 625
45 602 156
46 428 87
47 717 394
48 111 865
49 329 222
50 238 142
